; label array extracted from german_numeric.csv
(set-logic QF_AUFLIA)
(declare-const O (Array Int Int))
(define-fun m () Int 100)

(assert (= (select O 0) 1))
(assert (= (select O 1) 2))
(assert (= (select O 2) 1))
(assert (= (select O 3) 1))
(assert (= (select O 4) 2))
(assert (= (select O 5) 1))
(assert (= (select O 6) 1))
(assert (= (select O 7) 1))
(assert (= (select O 8) 1))
(assert (= (select O 9) 2))
(assert (= (select O 10) 2))
(assert (= (select O 11) 2))
(assert (= (select O 12) 1))
(assert (= (select O 13) 2))
(assert (= (select O 14) 1))
(assert (= (select O 15) 2))
(assert (= (select O 16) 1))
(assert (= (select O 17) 1))
(assert (= (select O 18) 2))
(assert (= (select O 19) 1))
(assert (= (select O 20) 1))
(assert (= (select O 21) 1))
(assert (= (select O 22) 1))
(assert (= (select O 23) 1))
(assert (= (select O 24) 1))
(assert (= (select O 25) 1))
(assert (= (select O 26) 1))
(assert (= (select O 27) 1))
(assert (= (select O 28) 1))
(assert (= (select O 29) 2))
(assert (= (select O 30) 1))
(assert (= (select O 31) 1))
(assert (= (select O 32) 1))
(assert (= (select O 33) 1))
(assert (= (select O 34) 1))
(assert (= (select O 35) 2))
(assert (= (select O 36) 1))
(assert (= (select O 37) 2))
(assert (= (select O 38) 1))
(assert (= (select O 39) 1))
(assert (= (select O 40) 1))
(assert (= (select O 41) 1))
(assert (= (select O 42) 1))
(assert (= (select O 43) 1))
(assert (= (select O 44) 2))
(assert (= (select O 45) 1))
(assert (= (select O 46) 1))
(assert (= (select O 47) 1))
(assert (= (select O 48) 1))
(assert (= (select O 49) 1))
(assert (= (select O 50) 1))
(assert (= (select O 51) 1))
(assert (= (select O 52) 1))
(assert (= (select O 53) 1))
(assert (= (select O 54) 2))
(assert (= (select O 55) 1))
(assert (= (select O 56) 2))
(assert (= (select O 57) 1))
(assert (= (select O 58) 1))
(assert (= (select O 59) 2))
(assert (= (select O 60) 1))
(assert (= (select O 61) 1))
(assert (= (select O 62) 2))
(assert (= (select O 63) 2))
(assert (= (select O 64) 1))
(assert (= (select O 65) 1))
(assert (= (select O 66) 1))
(assert (= (select O 67) 1))
(assert (= (select O 68) 2))
(assert (= (select O 69) 1))
(assert (= (select O 70) 1))
(assert (= (select O 71) 1))
(assert (= (select O 72) 1))
(assert (= (select O 73) 1))
(assert (= (select O 74) 2))
(assert (= (select O 75) 1))
(assert (= (select O 76) 2))
(assert (= (select O 77) 1))
(assert (= (select O 78) 1))
(assert (= (select O 79) 1))
(assert (= (select O 80) 2))
(assert (= (select O 81) 1))
(assert (= (select O 82) 1))
(assert (= (select O 83) 1))
(assert (= (select O 84) 1))
(assert (= (select O 85) 1))
(assert (= (select O 86) 1))
(assert (= (select O 87) 2))
(assert (= (select O 88) 1))
(assert (= (select O 89) 2))
(assert (= (select O 90) 1))
(assert (= (select O 91) 1))
(assert (= (select O 92) 2))
(assert (= (select O 93) 1))
(assert (= (select O 94) 1))
(assert (= (select O 95) 2))
(assert (= (select O 96) 1))
(assert (= (select O 97) 1))
(assert (= (select O 98) 1))
(assert (= (select O 99) 1))





(define-fun l () Int 2)
(define-fun B () Int 2)
(define-fun threshold () Int 25)
(define-fun count_label_1 () Int
  (+
    (ite (= (select O 0) 1) 1 0)
    (ite (= (select O 1) 1) 1 0)
    (ite (= (select O 2) 1) 1 0)
    (ite (= (select O 3) 1) 1 0)
    (ite (= (select O 4) 1) 1 0)
    (ite (= (select O 5) 1) 1 0)
    (ite (= (select O 6) 1) 1 0)
    (ite (= (select O 7) 1) 1 0)
    (ite (= (select O 8) 1) 1 0)
    (ite (= (select O 9) 1) 1 0)
    (ite (= (select O 10) 1) 1 0)
    (ite (= (select O 11) 1) 1 0)
    (ite (= (select O 12) 1) 1 0)
    (ite (= (select O 13) 1) 1 0)
    (ite (= (select O 14) 1) 1 0)
    (ite (= (select O 15) 1) 1 0)
    (ite (= (select O 16) 1) 1 0)
    (ite (= (select O 17) 1) 1 0)
    (ite (= (select O 18) 1) 1 0)
    (ite (= (select O 19) 1) 1 0)
    (ite (= (select O 20) 1) 1 0)
    (ite (= (select O 21) 1) 1 0)
    (ite (= (select O 22) 1) 1 0)
    (ite (= (select O 23) 1) 1 0)
    (ite (= (select O 24) 1) 1 0)
    (ite (= (select O 25) 1) 1 0)
    (ite (= (select O 26) 1) 1 0)
    (ite (= (select O 27) 1) 1 0)
    (ite (= (select O 28) 1) 1 0)
    (ite (= (select O 29) 1) 1 0)
    (ite (= (select O 30) 1) 1 0)
    (ite (= (select O 31) 1) 1 0)
    (ite (= (select O 32) 1) 1 0)
    (ite (= (select O 33) 1) 1 0)
    (ite (= (select O 34) 1) 1 0)
    (ite (= (select O 35) 1) 1 0)
    (ite (= (select O 36) 1) 1 0)
    (ite (= (select O 37) 1) 1 0)
    (ite (= (select O 38) 1) 1 0)
    (ite (= (select O 39) 1) 1 0)
    (ite (= (select O 40) 1) 1 0)
    (ite (= (select O 41) 1) 1 0)
    (ite (= (select O 42) 1) 1 0)
    (ite (= (select O 43) 1) 1 0)
    (ite (= (select O 44) 1) 1 0)
    (ite (= (select O 45) 1) 1 0)
    (ite (= (select O 46) 1) 1 0)
    (ite (= (select O 47) 1) 1 0)
    (ite (= (select O 48) 1) 1 0)
    (ite (= (select O 49) 1) 1 0)
    (ite (= (select O 50) 1) 1 0)
    (ite (= (select O 51) 1) 1 0)
    (ite (= (select O 52) 1) 1 0)
    (ite (= (select O 53) 1) 1 0)
    (ite (= (select O 54) 1) 1 0)
    (ite (= (select O 55) 1) 1 0)
    (ite (= (select O 56) 1) 1 0)
    (ite (= (select O 57) 1) 1 0)
    (ite (= (select O 58) 1) 1 0)
    (ite (= (select O 59) 1) 1 0)
    (ite (= (select O 60) 1) 1 0)
    (ite (= (select O 61) 1) 1 0)
    (ite (= (select O 62) 1) 1 0)
    (ite (= (select O 63) 1) 1 0)
    (ite (= (select O 64) 1) 1 0)
    (ite (= (select O 65) 1) 1 0)
    (ite (= (select O 66) 1) 1 0)
    (ite (= (select O 67) 1) 1 0)
    (ite (= (select O 68) 1) 1 0)
    (ite (= (select O 69) 1) 1 0)
    (ite (= (select O 70) 1) 1 0)
    (ite (= (select O 71) 1) 1 0)
    (ite (= (select O 72) 1) 1 0)
    (ite (= (select O 73) 1) 1 0)
    (ite (= (select O 74) 1) 1 0)
    (ite (= (select O 75) 1) 1 0)
    (ite (= (select O 76) 1) 1 0)
    (ite (= (select O 77) 1) 1 0)
    (ite (= (select O 78) 1) 1 0)
    (ite (= (select O 79) 1) 1 0)
    (ite (= (select O 80) 1) 1 0)
    (ite (= (select O 81) 1) 1 0)
    (ite (= (select O 82) 1) 1 0)
    (ite (= (select O 83) 1) 1 0)
    (ite (= (select O 84) 1) 1 0)
    (ite (= (select O 85) 1) 1 0)
    (ite (= (select O 86) 1) 1 0)
    (ite (= (select O 87) 1) 1 0)
    (ite (= (select O 88) 1) 1 0)
    (ite (= (select O 89) 1) 1 0)
    (ite (= (select O 90) 1) 1 0)
    (ite (= (select O 91) 1) 1 0)
    (ite (= (select O 92) 1) 1 0)
    (ite (= (select O 93) 1) 1 0)
    (ite (= (select O 94) 1) 1 0)
    (ite (= (select O 95) 1) 1 0)
    (ite (= (select O 96) 1) 1 0)
    (ite (= (select O 97) 1) 1 0)
    (ite (= (select O 98) 1) 1 0)
    (ite (= (select O 99) 1) 1 0)
  )
)

(define-fun count_label_2 () Int
  (+
    (ite (= (select O 0) 2) 1 0)
    (ite (= (select O 1) 2) 1 0)
    (ite (= (select O 2) 2) 1 0)
    (ite (= (select O 3) 2) 1 0)
    (ite (= (select O 4) 2) 1 0)
    (ite (= (select O 5) 2) 1 0)
    (ite (= (select O 6) 2) 1 0)
    (ite (= (select O 7) 2) 1 0)
    (ite (= (select O 8) 2) 1 0)
    (ite (= (select O 9) 2) 1 0)
    (ite (= (select O 10) 2) 1 0)
    (ite (= (select O 11) 2) 1 0)
    (ite (= (select O 12) 2) 1 0)
    (ite (= (select O 13) 2) 1 0)
    (ite (= (select O 14) 2) 1 0)
    (ite (= (select O 15) 2) 1 0)
    (ite (= (select O 16) 2) 1 0)
    (ite (= (select O 17) 2) 1 0)
    (ite (= (select O 18) 2) 1 0)
    (ite (= (select O 19) 2) 1 0)
    (ite (= (select O 20) 2) 1 0)
    (ite (= (select O 21) 2) 1 0)
    (ite (= (select O 22) 2) 1 0)
    (ite (= (select O 23) 2) 1 0)
    (ite (= (select O 24) 2) 1 0)
    (ite (= (select O 25) 2) 1 0)
    (ite (= (select O 26) 2) 1 0)
    (ite (= (select O 27) 2) 1 0)
    (ite (= (select O 28) 2) 1 0)
    (ite (= (select O 29) 2) 1 0)
    (ite (= (select O 30) 2) 1 0)
    (ite (= (select O 31) 2) 1 0)
    (ite (= (select O 32) 2) 1 0)
    (ite (= (select O 33) 2) 1 0)
    (ite (= (select O 34) 2) 1 0)
    (ite (= (select O 35) 2) 1 0)
    (ite (= (select O 36) 2) 1 0)
    (ite (= (select O 37) 2) 1 0)
    (ite (= (select O 38) 2) 1 0)
    (ite (= (select O 39) 2) 1 0)
    (ite (= (select O 40) 2) 1 0)
    (ite (= (select O 41) 2) 1 0)
    (ite (= (select O 42) 2) 1 0)
    (ite (= (select O 43) 2) 1 0)
    (ite (= (select O 44) 2) 1 0)
    (ite (= (select O 45) 2) 1 0)
    (ite (= (select O 46) 2) 1 0)
    (ite (= (select O 47) 2) 1 0)
    (ite (= (select O 48) 2) 1 0)
    (ite (= (select O 49) 2) 1 0)
    (ite (= (select O 50) 2) 1 0)
    (ite (= (select O 51) 2) 1 0)
    (ite (= (select O 52) 2) 1 0)
    (ite (= (select O 53) 2) 1 0)
    (ite (= (select O 54) 2) 1 0)
    (ite (= (select O 55) 2) 1 0)
    (ite (= (select O 56) 2) 1 0)
    (ite (= (select O 57) 2) 1 0)
    (ite (= (select O 58) 2) 1 0)
    (ite (= (select O 59) 2) 1 0)
    (ite (= (select O 60) 2) 1 0)
    (ite (= (select O 61) 2) 1 0)
    (ite (= (select O 62) 2) 1 0)
    (ite (= (select O 63) 2) 1 0)
    (ite (= (select O 64) 2) 1 0)
    (ite (= (select O 65) 2) 1 0)
    (ite (= (select O 66) 2) 1 0)
    (ite (= (select O 67) 2) 1 0)
    (ite (= (select O 68) 2) 1 0)
    (ite (= (select O 69) 2) 1 0)
    (ite (= (select O 70) 2) 1 0)
    (ite (= (select O 71) 2) 1 0)
    (ite (= (select O 72) 2) 1 0)
    (ite (= (select O 73) 2) 1 0)
    (ite (= (select O 74) 2) 1 0)
    (ite (= (select O 75) 2) 1 0)
    (ite (= (select O 76) 2) 1 0)
    (ite (= (select O 77) 2) 1 0)
    (ite (= (select O 78) 2) 1 0)
    (ite (= (select O 79) 2) 1 0)
    (ite (= (select O 80) 2) 1 0)
    (ite (= (select O 81) 2) 1 0)
    (ite (= (select O 82) 2) 1 0)
    (ite (= (select O 83) 2) 1 0)
    (ite (= (select O 84) 2) 1 0)
    (ite (= (select O 85) 2) 1 0)
    (ite (= (select O 86) 2) 1 0)
    (ite (= (select O 87) 2) 1 0)
    (ite (= (select O 88) 2) 1 0)
    (ite (= (select O 89) 2) 1 0)
    (ite (= (select O 90) 2) 1 0)
    (ite (= (select O 91) 2) 1 0)
    (ite (= (select O 92) 2) 1 0)
    (ite (= (select O 93) 2) 1 0)
    (ite (= (select O 94) 2) 1 0)
    (ite (= (select O 95) 2) 1 0)
    (ite (= (select O 96) 2) 1 0)
    (ite (= (select O 97) 2) 1 0)
    (ite (= (select O 98) 2) 1 0)
    (ite (= (select O 99) 2) 1 0)
  )
)

(assert
  (and
    (>= count_label_1 threshold)
    (>= count_label_2 threshold)
  )
)

(check-sat)

